Route #1: 77 23 44 26 11 64 40 53
Route #2: 68 41 14 36 9 19 4 59 35 55
Route #3: 39 33 13 48 74 28
Route #4: 62 61 50 6 60 66 16 18
Route #5: 56 8 22 71 15 45 51
Route #6: 12 34 46 31 20 54 3
Route #7: 57 7 32 76 73 29
Route #8: 2 27 63 49 65 47
Route #9: 5 30 75 37 70 42 25 10
Route #10: 1 52 24 21 43 67 69 38 58
Route #11: 72 17
Cost 1325